 Code  1033
 Dimension, Fixed Cost
   100        3000
 Facility, Client, Transportation Cost
     1        9           0
     1       15           0
     1       16           1
     1       20           1
     1       29           1
     1       38           2
     1       42           1
     1       44           0
     1       47           0
     1       54           2
     2        9           4
     2       22           3
     2       30           0
     2       52           1
     2       63           0
     2       71           3
     2       80           3
     2       85           2
     2       97           1
     2       98           2
     3        4           4
     3        5           1
     3       10           4
     3       32           2
     3       34           3
     3       40           0
     3       44           4
     3       45           0
     3       50           3
     3       72           4
     4       15           3
     4       28           3
     4       34           3
     4       67           3
     4       76           1
     4       80           4
     4       86           4
     4       91           1
     4       92           4
     4       95           3
     5        1           2
     5       15           3
     5       27           2
     5       31           1
     5       37           0
     5       75           1
     5       78           2
     5       84           4
     5       93           0
     5       95           2
     6        5           0
     6       23           1
     6       47           4
     6       51           3
     6       57           4
     6       69           0
     6       78           4
     6       85           4
     6       90           1
     6       94           2
     7       27           0
     7       37           4
     7       51           0
     7       60           0
     7       73           1
     7       89           4
     7       92           2
     7       94           4
     7       95           4
     7       98           3
     8       32           0
     8       48           2
     8       52           0
     8       60           3
     8       61           2
     8       72           1
     8       73           3
     8       85           2
     8       87           3
     8       98           3
     9        2           3
     9        8           2
     9       12           4
     9       35           2
     9       39           2
     9       79           0
     9       80           0
     9       83           0
     9       85           3
     9       88           3
    10        4           1
    10       27           0
    10       30           3
    10       31           3
    10       41           3
    10       71           4
    10       88           0
    10       89           2
    10       92           3
    10       97           3
    11        8           2
    11       18           2
    11       25           1
    11       29           0
    11       38           2
    11       53           4
    11       67           0
    11       77           2
    11       78           1
    11       79           4
    12        2           0
    12        8           3
    12       16           2
    12       35           2
    12       50           0
    12       76           3
    12       77           3
    12       81           1
    12       82           0
    12       88           2
    13        2           3
    13       20           1
    13       55           1
    13       64           3
    13       77           4
    13       84           4
    13       85           0
    13       87           2
    13       91           1
    13       94           0
    14       12           1
    14       22           0
    14       25           0
    14       40           0
    14       41           2
    14       42           2
    14       43           3
    14       45           3
    14       63           0
    14       65           1
    15       23           4
    15       24           4
    15       34           4
    15       36           4
    15       39           0
    15       47           1
    15       51           4
    15       61           4
    15       72           4
    15       87           2
    16        3           4
    16        4           1
    16        7           4
    16        8           1
    16       15           1
    16       37           3
    16       41           2
    16       55           0
    16       58           2
    16       64           3
    17        5           3
    17       12           3
    17       14           2
    17       53           1
    17       83           1
    17       93           2
    17       94           1
    17       97           2
    17       99           2
    17      100           3
    18       39           4
    18       67           0
    18       68           0
    18       69           0
    18       80           4
    18       82           3
    18       83           4
    18       86           4
    18       87           3
    18       90           1
    19        4           0
    19       18           4
    19       31           0
    19       36           1
    19       52           3
    19       56           1
    19       61           2
    19       63           0
    19       77           3
    19       90           4
    20       13           1
    20       24           0
    20       25           2
    20       36           2
    20       40           4
    20       47           1
    20       59           1
    20       62           2
    20       69           1
    20       74           1
    21        4           0
    21       12           2
    21       21           1
    21       35           4
    21       42           0
    21       55           0
    21       58           3
    21       68           0
    21       76           1
    21       79           3
    22       22           1
    22       26           3
    22       34           3
    22       41           1
    22       42           4
    22       48           4
    22       49           0
    22       51           0
    22       56           0
    22       74           3
    23        3           0
    23       19           4
    23       26           1
    23       27           0
    23       28           1
    23       43           4
    23       45           3
    23       48           1
    23       79           0
    23       81           3
    24       11           1
    24       14           1
    24       18           0
    24       26           4
    24       29           2
    24       32           0
    24       37           1
    24       39           0
    24       46           2
    24       55           1
    25        5           2
    25       17           1
    25       20           0
    25       25           3
    25       48           2
    25       49           2
    25       55           0
    25       60           2
    25       64           3
    25       77           3
    26       20           2
    26       28           2
    26       48           0
    26       70           4
    26       82           4
    26       83           4
    26       89           2
    26       90           4
    26       98           0
    26       99           0
    27       21           4
    27       29           0
    27       35           2
    27       91           3
    27       93           4
    27       95           0
    27       96           0
    27       97           3
    27       99           1
    27      100           0
    28        7           2
    28       19           0
    28       22           4
    28       62           1
    28       71           2
    28       78           0
    28       84           3
    28       87           2
    28       90           4
    28       92           0
    29        8           3
    29       28           4
    29       40           1
    29       52           2
    29       60           0
    29       67           1
    29       68           0
    29       71           2
    29       74           4
    29       87           1
    30       24           0
    30       31           4
    30       38           2
    30       43           1
    30       49           1
    30       68           1
    30       73           1
    30       74           3
    30       79           1
    30       82           0
    31       23           1
    31       30           2
    31       34           4
    31       36           3
    31       42           0
    31       49           1
    31       53           3
    31       83           3
    31       86           1
    31       95           3
    32        3           1
    32       20           4
    32       31           1
    32       53           2
    32       57           0
    32       61           4
    32       66           0
    32       70           3
    32       74           1
    32       77           3
    33        6           0
    33       11           4
    33       35           2
    33       38           0
    33       40           2
    33       44           3
    33       56           2
    33       63           3
    33       74           0
    33       83           4
    34        8           1
    34       21           0
    34       40           2
    34       49           1
    34       52           4
    34       57           3
    34       58           0
    34       66           1
    34       69           1
    34       72           1
    35        2           0
    35       31           3
    35       32           4
    35       33           4
    35       38           3
    35       45           3
    35       53           3
    35       56           2
    35       67           4
    35       84           3
    36        6           2
    36       16           1
    36       19           0
    36       21           2
    36       46           3
    36       51           4
    36       77           1
    36       80           0
    36       92           2
    36       99           0
    37        3           1
    37       10           1
    37       12           4
    37       14           4
    37       17           3
    37       30           2
    37       33           1
    37       43           0
    37       46           4
    37       58           3
    38        2           1
    38       11           4
    38       23           4
    38       36           0
    38       37           0
    38       52           3
    38       60           4
    38       66           4
    38       79           3
    38       88           0
    39        6           2
    39       15           1
    39       17           0
    39       24           3
    39       49           4
    39       54           4
    39       64           3
    39       96           4
    39       97           1
    39       98           1
    40       26           1
    40       32           3
    40       41           0
    40       47           4
    40       50           4
    40       78           2
    40       84           4
    40       85           0
    40       88           4
    40       90           2
    41       15           3
    41       21           0
    41       23           3
    41       29           4
    41       50           4
    41       53           2
    41       61           4
    41       62           0
    41       64           3
    41       73           1
    42        2           1
    42        3           2
    42       16           1
    42       25           1
    42       31           1
    42       33           3
    42       51           0
    42       53           1
    42       75           0
    42       88           1
    43       17           1
    43       44           0
    43       46           4
    43       73           1
    43       74           4
    43       75           1
    43       84           2
    43       88           0
    43       94           0
    43       96           2
    44       18           3
    44       33           0
    44       49           0
    44       58           2
    44       75           3
    44       76           0
    44       90           2
    44       91           0
    44       96           3
    44      100           0
    45       25           0
    45       37           1
    45       45           2
    45       47           1
    45       91           0
    45       96           0
    45       97           4
    45       98           4
    45       99           3
    45      100           1
    46        5           0
    46       18           4
    46       24           2
    46       45           4
    46       58           2
    46       59           0
    46       76           3
    46       78           0
    46       81           2
    46       86           2
    47       34           1
    47       43           0
    47       56           1
    47       62           2
    47       75           2
    47       89           1
    47       92           0
    47       93           3
    47       94           0
    47       96           1
    48        3           2
    48        5           2
    48       16           2
    48       17           4
    48       36           3
    48       44           4
    48       45           3
    48       48           1
    48       70           3
    48       73           4
    49       10           0
    49       11           2
    49       17           4
    49       22           3
    49       26           1
    49       33           4
    49       35           2
    49       69           1
    49       84           0
    49       86           4
    50       10           4
    50       16           1
    50       41           3
    50       42           2
    50       70           1
    50       77           4
    50       81           3
    50       86           3
    50       94           3
    50       96           2
    51       13           3
    51       20           0
    51       22           0
    51       27           0
    51       38           4
    51       58           4
    51       77           1
    51       78           0
    51       82           0
    51       83           2
    52        1           2
    52        6           0
    52        9           0
    52       15           4
    52       26           3
    52       30           0
    52       39           2
    52       51           1
    52       55           4
    52       59           4
    53        4           3
    53        7           4
    53       13           4
    53       26           2
    53       42           3
    53       50           4
    53       53           3
    53       57           3
    53       61           4
    53       67           4
    54        7           4
    54       12           1
    54       18           3
    54       19           0
    54       27           1
    54       54           2
    54       93           1
    54       98           1
    54       99           1
    54      100           3
    55        5           3
    55       15           3
    55       21           4
    55       44           0
    55       48           0
    55       76           3
    55       82           1
    55       87           1
    55       91           1
    55       93           0
    56        6           4
    56       31           1
    56       34           2
    56       52           0
    56       59           4
    56       66           4
    56       84           4
    56       89           4
    56       92           3
    56       93           2
    57        7           4
    57        8           2
    57       27           3
    57       30           0
    57       35           4
    57       46           2
    57       49           2
    57       65           3
    57       87           4
    57       88           1
    58       19           4
    58       20           4
    58       54           1
    58       59           1
    58       63           3
    58       64           3
    58       79           2
    58       83           2
    58       95           4
    58       97           3
    59       21           3
    59       29           0
    59       37           3
    59       49           1
    59       56           2
    59       68           2
    59       69           3
    59       70           4
    59       86           1
    59       91           2
    60        8           3
    60        9           3
    60       17           2
    60       37           1
    60       43           2
    60       58           3
    60       60           3
    60       64           1
    60       88           0
    60       90           2
    61        9           4
    61       26           3
    61       33           1
    61       51           3
    61       60           1
    61       68           1
    61       70           3
    61       74           2
    61       75           1
    61       79           0
    62        7           0
    62       10           1
    62       11           2
    62       16           0
    62       28           3
    62       41           1
    62       51           2
    62       52           2
    62       55           1
    62       66           2
    63       10           0
    63       23           4
    63       24           3
    63       41           1
    63       48           0
    63       55           1
    63       56           0
    63       67           1
    63       79           1
    63       80           0
    64        1           2
    64        2           1
    64        4           2
    64       19           2
    64       22           0
    64       29           0
    64       48           1
    64       57           1
    64       60           0
    64       65           4
    65       17           4
    65       18           0
    65       34           4
    65       43           0
    65       47           2
    65       62           2
    65       71           0
    65       84           1
    65       92           1
    65       95           0
    66        1           4
    66       10           3
    66       13           4
    66       36           0
    66       50           3
    66       62           1
    66       74           2
    66       83           1
    66       86           0
    66       88           4
    67       23           4
    67       36           0
    67       66           1
    67       68           3
    67       69           1
    67       91           1
    67       96           4
    67       97           3
    67       99           0
    67      100           1
    68       20           4
    68       27           1
    68       30           1
    68       60           2
    68       71           3
    68       80           1
    68       85           1
    68       87           2
    68       90           2
    68       94           0
    69        1           4
    69        2           4
    69        3           2
    69        5           0
    69        7           0
    69       13           4
    69       33           4
    69       42           0
    69       46           3
    69       50           2
    70        2           1
    70        6           3
    70       14           4
    70       16           0
    70       30           2
    70       58           4
    70       59           2
    70       65           2
    70       68           2
    70       78           1
    71       14           3
    71       22           0
    71       28           3
    71       33           1
    71       57           4
    71       62           2
    71       63           3
    71       65           1
    71       75           3
    71       78           4
    72        1           4
    72        4           4
    72        6           3
    72       18           3
    72       20           0
    72       40           1
    72       65           4
    72       98           1
    72       99           1
    72      100           0
    73        7           0
    73        9           1
    73       14           2
    73       26           3
    73       39           4
    73       40           0
    73       43           4
    73       44           0
    73       56           0
    73       59           3
    74        9           3
    74       25           0
    74       28           4
    74       34           4
    74       46           3
    74       50           1
    74       56           1
    74       64           2
    74       70           2
    74       73           4
    75        3           4
    75        9           0
    75       16           2
    75       31           1
    75       32           2
    75       38           4
    75       58           1
    75       61           3
    75       67           0
    75       78           4
    76       11           0
    76       24           3
    76       29           2
    76       38           1
    76       45           1
    76       48           3
    76       66           4
    76       67           0
    76       70           1
    76       72           4
    77        3           1
    77        9           0
    77       22           1
    77       26           3
    77       46           3
    77       55           3
    77       69           4
    77       75           1
    77       81           2
    77       82           0
    78       13           3
    78       16           0
    78       25           1
    78       47           4
    78       51           4
    78       54           4
    78       61           4
    78       65           2
    78       75           3
    78       76           4
    79        9           4
    79       10           3
    79       14           4
    79       29           0
    79       30           1
    79       44           2
    79       55           1
    79       65           2
    79       69           0
    79       81           4
    80       11           4
    80       14           3
    80       42           4
    80       43           1
    80       46           4
    80       54           0
    80       66           2
    80       72           2
    80       76           4
    80       77           2
    81        5           2
    81       12           4
    81       13           3
    81       24           4
    81       30           0
    81       33           4
    81       43           3
    81       71           2
    81       74           1
    81       81           4
    82       17           1
    82       19           4
    82       21           0
    82       32           0
    82       35           4
    82       41           3
    82       62           0
    82       67           0
    82       90           0
    82       93           0
    83        1           2
    83       36           1
    83       57           3
    83       59           3
    83       60           1
    83       61           0
    83       66           3
    83       73           4
    83       80           4
    83       82           1
    84        2           2
    84        5           1
    84        6           3
    84       18           4
    84       39           1
    84       72           3
    84       73           0
    84       75           3
    84       80           1
    84       85           4
    85        3           0
    85       10           2
    85       11           3
    85       12           2
    85       15           0
    85       19           0
    85       21           3
    85       27           0
    85       37           4
    85       53           4
    86       13           2
    86       20           3
    86       40           0
    86       41           1
    86       56           2
    86       63           4
    86       69           3
    86       71           4
    86       82           3
    86       85           2
    87       24           4
    87       28           0
    87       29           2
    87       31           2
    87       45           0
    87       47           1
    87       54           4
    87       70           3
    87       91           0
    87       93           3
    88        7           4
    88       59           4
    88       62           3
    88       72           4
    88       76           4
    88       79           3
    88       89           2
    88       95           4
    88       96           2
    88       97           1
    89        6           1
    89       34           4
    89       35           2
    89       44           4
    89       49           4
    89       52           1
    89       59           3
    89       66           0
    89       71           3
    89       84           1
    90       11           1
    90       15           2
    90       25           3
    90       28           0
    90       32           3
    90       39           2
    90       50           3
    90       63           0
    90       73           0
    90       76           4
    91        7           2
    91       17           0
    91       32           2
    91       39           0
    91       42           2
    91       63           2
    91       64           3
    91       81           0
    91       85           3
    91       87           3
    92        1           4
    92       14           2
    92       39           3
    92       45           4
    92       57           3
    92       61           4
    92       62           1
    92       63           3
    92       72           1
    92       86           3
    93        8           3
    93       10           4
    93       35           3
    93       54           2
    93       57           1
    93       64           0
    93       68           2
    93       81           4
    93       89           3
    93       92           0
    94       13           4
    94       38           4
    94       40           2
    94       47           1
    94       50           3
    94       54           3
    94       70           4
    94       86           1
    94       97           3
    94      100           2
    95       14           4
    95       23           3
    95       24           3
    95       25           0
    95       44           3
    95       71           3
    95       93           1
    95       98           2
    95       99           3
    95      100           0
    96        8           0
    96       11           1
    96       12           0
    96       18           3
    96       19           2
    96       23           2
    96       32           3
    96       52           3
    96       89           1
    96       94           4
    97        1           0
    97       12           1
    97       27           3
    97       37           4
    97       80           3
    97       83           0
    97       94           2
    97       98           1
    97       99           1
    97      100           2
    98       19           4
    98       33           0
    98       54           0
    98       57           2
    98       65           0
    98       72           1
    98       89           2
    98       92           2
    98       95           4
    98       96           0
    99        1           1
    99        4           2
    99       23           2
    99       38           4
    99       53           2
    99       65           3
    99       82           4
    99       89           3
    99       91           4
    99       95           0
   100        4           1
   100        6           4
   100       13           4
   100       21           2
   100       22           4
   100       28           1
   100       36           3
   100       46           3
   100       68           0
   100       81           3
